c Reduced graph for 2-FullIns_4 generated by Cyril Grelier
p edge 212 1621
e 1 2
e 1 3
e 1 4
e 1 53
e 1 54
e 1 55
e 1 56
e 1 117
e 1 118
e 1 119
e 1 120
e 1 121
e 1 122
e 1 123
e 1 124
e 1 131
e 1 132
e 1 133
e 1 134
e 1 173
e 1 174
e 1 175
e 1 176
e 1 177
e 1 178
e 1 179
e 1 180
e 1 181
e 1 182
e 1 183
e 1 184
e 1 185
e 1 186
e 1 187
e 1 188
e 1 193
e 1 194
e 1 195
e 1 196
e 1 197
e 1 198
e 1 199
e 1 200
e 1 201
e 1 202
e 1 203
e 1 204
e 1 205
e 1 206
e 1 207
e 1 208
e 1 209
e 1 210
e 1 211
e 1 212
e 2 3
e 2 4
e 2 5
e 2 6
e 2 7
e 2 8
e 2 17
e 2 18
e 2 19
e 2 20
e 2 21
e 2 22
e 2 23
e 2 24
e 2 41
e 2 42
e 2 43
e 2 44
e 2 57
e 2 58
e 2 59
e 2 60
e 2 61
e 2 62
e 2 63
e 2 64
e 2 65
e 2 66
e 2 67
e 2 68
e 2 69
e 2 70
e 2 71
e 2 72
e 2 105
e 2 106
e 2 107
e 2 108
e 2 109
e 2 110
e 2 135
e 2 136
e 2 137
e 2 138
e 2 139
e 2 140
e 2 141
e 2 142
e 2 143
e 2 144
e 2 165
e 2 166
e 2 167
e 2 168
e 3 4
e 3 9
e 3 10
e 3 11
e 3 12
e 3 25
e 3 26
e 3 27
e 3 28
e 3 29
e 3 30
e 3 31
e 3 32
e 3 45
e 3 46
e 3 47
e 3 48
e 3 73
e 3 74
e 3 75
e 3 76
e 3 77
e 3 78
e 3 79
e 3 80
e 3 81
e 3 82
e 3 83
e 3 84
e 3 85
e 3 86
e 3 87
e 3 88
e 3 111
e 3 112
e 3 113
e 3 114
e 3 115
e 3 116
e 3 145
e 3 146
e 3 147
e 3 148
e 3 149
e 3 150
e 3 151
e 3 152
e 3 153
e 3 154
e 3 169
e 3 170
e 3 171
e 3 172
e 4 53
e 4 54
e 4 55
e 4 56
e 4 117
e 4 118
e 4 119
e 4 120
e 4 121
e 4 122
e 4 123
e 4 124
e 4 131
e 4 132
e 4 133
e 4 134
e 4 173
e 4 174
e 4 175
e 4 176
e 4 177
e 4 178
e 4 179
e 4 180
e 4 181
e 4 182
e 4 183
e 4 184
e 4 185
e 4 186
e 4 187
e 4 188
e 4 193
e 4 194
e 4 195
e 4 196
e 4 197
e 4 198
e 4 199
e 4 200
e 4 201
e 4 202
e 4 203
e 4 204
e 4 205
e 4 206
e 4 207
e 4 208
e 4 209
e 4 210
e 4 211
e 4 212
e 5 10
e 5 11
e 5 12
e 5 14
e 5 15
e 5 16
e 5 85
e 5 86
e 5 87
e 5 88
e 5 101
e 5 102
e 5 103
e 5 104
e 5 149
e 5 150
e 5 151
e 5 152
e 5 153
e 5 154
e 5 159
e 5 160
e 5 161
e 5 162
e 5 163
e 5 164
e 5 171
e 5 172
e 5 191
e 5 192
e 6 9
e 6 11
e 6 12
e 6 13
e 6 15
e 6 16
e 6 25
e 6 26
e 6 27
e 6 28
e 6 33
e 6 34
e 6 35
e 6 36
e 6 73
e 6 74
e 6 75
e 6 76
e 6 77
e 6 78
e 6 89
e 6 90
e 6 91
e 6 92
e 6 93
e 6 94
e 6 145
e 6 146
e 6 155
e 6 156
e 7 9
e 7 10
e 7 12
e 7 13
e 7 14
e 7 16
e 7 29
e 7 30
e 7 31
e 7 32
e 7 37
e 7 38
e 7 39
e 7 40
e 7 79
e 7 80
e 7 81
e 7 82
e 7 83
e 7 84
e 7 95
e 7 96
e 7 97
e 7 98
e 7 99
e 7 100
e 7 147
e 7 148
e 7 157
e 7 158
e 8 9
e 8 10
e 8 11
e 8 13
e 8 14
e 8 15
e 8 85
e 8 86
e 8 87
e 8 88
e 8 101
e 8 102
e 8 103
e 8 104
e 8 149
e 8 150
e 8 151
e 8 152
e 8 153
e 8 154
e 8 159
e 8 160
e 8 161
e 8 162
e 8 163
e 8 164
e 8 171
e 8 172
e 8 191
e 8 192
e 9 54
e 9 55
e 9 56
e 9 69
e 9 70
e 9 71
e 9 72
e 9 139
e 9 140
e 9 141
e 9 142
e 9 143
e 9 144
e 9 167
e 9 168
e 9 185
e 9 186
e 9 187
e 9 188
e 9 203
e 9 204
e 9 205
e 9 206
e 9 207
e 9 208
e 9 211
e 9 212
e 10 17
e 10 18
e 10 19
e 10 20
e 10 53
e 10 55
e 10 56
e 10 57
e 10 58
e 10 59
e 10 60
e 10 61
e 10 62
e 10 117
e 10 118
e 10 119
e 10 120
e 10 135
e 10 136
e 10 173
e 10 174
e 10 175
e 10 176
e 10 177
e 10 178
e 10 199
e 10 200
e 11 21
e 11 22
e 11 23
e 11 24
e 11 53
e 11 54
e 11 56
e 11 63
e 11 64
e 11 65
e 11 66
e 11 67
e 11 68
e 11 121
e 11 122
e 11 123
e 11 124
e 11 137
e 11 138
e 11 179
e 11 180
e 11 181
e 11 182
e 11 183
e 11 184
e 11 201
e 11 202
e 12 53
e 12 54
e 12 55
e 12 69
e 12 70
e 12 71
e 12 72
e 12 139
e 12 140
e 12 141
e 12 142
e 12 143
e 12 144
e 12 167
e 12 168
e 12 185
e 12 186
e 12 187
e 12 188
e 12 203
e 12 204
e 12 205
e 12 206
e 12 207
e 12 208
e 12 211
e 12 212
e 13 14
e 13 15
e 13 16
e 13 69
e 13 70
e 13 71
e 13 72
e 13 101
e 13 102
e 13 103
e 13 104
e 13 139
e 13 140
e 13 141
e 13 142
e 13 143
e 13 144
e 13 159
e 13 160
e 13 161
e 13 162
e 13 163
e 13 164
e 13 167
e 13 168
e 13 191
e 13 192
e 14 15
e 14 16
e 14 17
e 14 18
e 14 19
e 14 20
e 14 33
e 14 34
e 14 35
e 14 36
e 14 57
e 14 58
e 14 59
e 14 60
e 14 61
e 14 62
e 14 89
e 14 90
e 14 91
e 14 92
e 14 93
e 14 94
e 14 135
e 14 136
e 14 155
e 14 156
e 15 16
e 15 21
e 15 22
e 15 23
e 15 24
e 15 37
e 15 38
e 15 39
e 15 40
e 15 63
e 15 64
e 15 65
e 15 66
e 15 67
e 15 68
e 15 95
e 15 96
e 15 97
e 15 98
e 15 99
e 15 100
e 15 137
e 15 138
e 15 157
e 15 158
e 16 69
e 16 70
e 16 71
e 16 72
e 16 101
e 16 102
e 16 103
e 16 104
e 16 139
e 16 140
e 16 141
e 16 142
e 16 143
e 16 144
e 16 159
e 16 160
e 16 161
e 16 162
e 16 163
e 16 164
e 16 167
e 16 168
e 16 191
e 16 192
e 17 30
e 17 31
e 17 32
e 17 38
e 17 39
e 17 40
e 17 46
e 17 47
e 17 48
e 17 50
e 17 51
e 17 52
e 17 83
e 17 84
e 17 99
e 17 100
e 17 115
e 17 116
e 17 129
e 17 130
e 18 29
e 18 31
e 18 32
e 18 37
e 18 39
e 18 40
e 18 45
e 18 47
e 18 48
e 18 49
e 18 51
e 18 52
e 18 79
e 18 80
e 18 95
e 18 96
e 18 111
e 18 112
e 18 125
e 18 126
e 19 29
e 19 30
e 19 32
e 19 37
e 19 38
e 19 40
e 19 45
e 19 46
e 19 48
e 19 49
e 19 50
e 19 52
e 19 81
e 19 82
e 19 97
e 19 98
e 19 113
e 19 114
e 19 127
e 19 128
e 20 29
e 20 30
e 20 31
e 20 37
e 20 38
e 20 39
e 20 45
e 20 46
e 20 47
e 20 49
e 20 50
e 20 51
e 20 83
e 20 84
e 20 99
e 20 100
e 20 115
e 20 116
e 20 129
e 20 130
e 21 26
e 21 27
e 21 28
e 21 34
e 21 35
e 21 36
e 21 77
e 21 78
e 21 86
e 21 87
e 21 88
e 21 93
e 21 94
e 21 102
e 21 103
e 21 104
e 21 153
e 21 154
e 21 163
e 21 164
e 22 25
e 22 27
e 22 28
e 22 33
e 22 35
e 22 36
e 22 73
e 22 74
e 22 85
e 22 87
e 22 88
e 22 89
e 22 90
e 22 101
e 22 103
e 22 104
e 22 149
e 22 150
e 22 159
e 22 160
e 23 25
e 23 26
e 23 28
e 23 33
e 23 34
e 23 36
e 23 75
e 23 76
e 23 85
e 23 86
e 23 88
e 23 91
e 23 92
e 23 101
e 23 102
e 23 104
e 23 151
e 23 152
e 23 161
e 23 162
e 24 25
e 24 26
e 24 27
e 24 33
e 24 34
e 24 35
e 24 77
e 24 78
e 24 85
e 24 86
e 24 87
e 24 93
e 24 94
e 24 101
e 24 102
e 24 103
e 24 153
e 24 154
e 24 163
e 24 164
e 25 42
e 25 43
e 25 44
e 25 54
e 25 67
e 25 68
e 25 109
e 25 110
e 25 122
e 25 123
e 25 124
e 25 132
e 25 133
e 25 134
e 25 183
e 25 184
e 25 197
e 25 198
e 26 41
e 26 43
e 26 44
e 26 54
e 26 63
e 26 64
e 26 105
e 26 106
e 26 121
e 26 123
e 26 124
e 26 131
e 26 133
e 26 134
e 26 179
e 26 180
e 26 193
e 26 194
e 27 41
e 27 42
e 27 44
e 27 54
e 27 65
e 27 66
e 27 107
e 27 108
e 27 121
e 27 122
e 27 124
e 27 131
e 27 132
e 27 134
e 27 181
e 27 182
e 27 195
e 27 196
e 28 41
e 28 42
e 28 43
e 28 54
e 28 67
e 28 68
e 28 109
e 28 110
e 28 121
e 28 122
e 28 123
e 28 131
e 28 132
e 28 133
e 28 183
e 28 184
e 28 197
e 28 198
e 29 55
e 29 61
e 29 62
e 29 70
e 29 71
e 29 72
e 29 118
e 29 119
e 29 120
e 29 143
e 29 144
e 29 177
e 29 178
e 29 186
e 29 187
e 29 188
e 29 207
e 29 208
e 30 55
e 30 57
e 30 58
e 30 69
e 30 71
e 30 72
e 30 117
e 30 119
e 30 120
e 30 139
e 30 140
e 30 173
e 30 174
e 30 185
e 30 187
e 30 188
e 30 203
e 30 204
e 31 55
e 31 59
e 31 60
e 31 69
e 31 70
e 31 72
e 31 117
e 31 118
e 31 120
e 31 141
e 31 142
e 31 175
e 31 176
e 31 185
e 31 186
e 31 188
e 31 205
e 31 206
e 32 55
e 32 61
e 32 62
e 32 69
e 32 70
e 32 71
e 32 117
e 32 118
e 32 119
e 32 143
e 32 144
e 32 177
e 32 178
e 32 185
e 32 186
e 32 187
e 32 207
e 32 208
e 33 38
e 33 39
e 33 40
e 33 42
e 33 43
e 33 44
e 33 50
e 33 51
e 33 52
e 33 67
e 33 68
e 33 99
e 33 100
e 33 109
e 33 110
e 33 129
e 33 130
e 34 37
e 34 39
e 34 40
e 34 41
e 34 43
e 34 44
e 34 49
e 34 51
e 34 52
e 34 63
e 34 64
e 34 95
e 34 96
e 34 105
e 34 106
e 34 125
e 34 126
e 35 37
e 35 38
e 35 40
e 35 41
e 35 42
e 35 44
e 35 49
e 35 50
e 35 52
e 35 65
e 35 66
e 35 97
e 35 98
e 35 107
e 35 108
e 35 127
e 35 128
e 36 37
e 36 38
e 36 39
e 36 41
e 36 42
e 36 43
e 36 49
e 36 50
e 36 51
e 36 67
e 36 68
e 36 99
e 36 100
e 36 109
e 36 110
e 36 129
e 36 130
e 37 61
e 37 62
e 37 70
e 37 71
e 37 72
e 37 93
e 37 94
e 37 102
e 37 103
e 37 104
e 37 143
e 37 144
e 37 163
e 37 164
e 38 57
e 38 58
e 38 69
e 38 71
e 38 72
e 38 89
e 38 90
e 38 101
e 38 103
e 38 104
e 38 139
e 38 140
e 38 159
e 38 160
e 39 59
e 39 60
e 39 69
e 39 70
e 39 72
e 39 91
e 39 92
e 39 101
e 39 102
e 39 104
e 39 141
e 39 142
e 39 161
e 39 162
e 40 61
e 40 62
e 40 69
e 40 70
e 40 71
e 40 93
e 40 94
e 40 101
e 40 102
e 40 103
e 40 143
e 40 144
e 40 163
e 40 164
e 41 46
e 41 47
e 41 48
e 41 50
e 41 51
e 41 52
e 41 77
e 41 78
e 41 93
e 41 94
e 41 115
e 41 116
e 41 129
e 41 130
e 42 45
e 42 47
e 42 48
e 42 49
e 42 51
e 42 52
e 42 73
e 42 74
e 42 89
e 42 90
e 42 111
e 42 112
e 42 125
e 42 126
e 43 45
e 43 46
e 43 48
e 43 49
e 43 50
e 43 52
e 43 75
e 43 76
e 43 91
e 43 92
e 43 113
e 43 114
e 43 127
e 43 128
e 44 45
e 44 46
e 44 47
e 44 49
e 44 50
e 44 51
e 44 77
e 44 78
e 44 93
e 44 94
e 44 115
e 44 116
e 44 129
e 44 130
e 45 61
e 45 62
e 45 109
e 45 110
e 45 118
e 45 119
e 45 120
e 45 132
e 45 133
e 45 134
e 45 177
e 45 178
e 45 197
e 45 198
e 46 57
e 46 58
e 46 105
e 46 106
e 46 117
e 46 119
e 46 120
e 46 131
e 46 133
e 46 134
e 46 173
e 46 174
e 46 193
e 46 194
e 47 59
e 47 60
e 47 107
e 47 108
e 47 117
e 47 118
e 47 120
e 47 131
e 47 132
e 47 134
e 47 175
e 47 176
e 47 195
e 47 196
e 48 61
e 48 62
e 48 109
e 48 110
e 48 117
e 48 118
e 48 119
e 48 131
e 48 132
e 48 133
e 48 177
e 48 178
e 48 197
e 48 198
e 49 50
e 49 51
e 49 52
e 49 61
e 49 62
e 49 93
e 49 94
e 49 109
e 49 110
e 49 129
e 49 130
e 50 51
e 50 52
e 50 57
e 50 58
e 50 89
e 50 90
e 50 105
e 50 106
e 50 125
e 50 126
e 51 52
e 51 59
e 51 60
e 51 91
e 51 92
e 51 107
e 51 108
e 51 127
e 51 128
e 52 61
e 52 62
e 52 93
e 52 94
e 52 109
e 52 110
e 52 129
e 52 130
e 53 85
e 53 86
e 53 87
e 53 88
e 53 149
e 53 150
e 53 151
e 53 152
e 53 153
e 53 154
e 53 171
e 53 172
e 54 73
e 54 74
e 54 75
e 54 76
e 54 77
e 54 78
e 54 145
e 54 146
e 55 79
e 55 80
e 55 81
e 55 82
e 55 83
e 55 84
e 55 147
e 55 148
e 56 85
e 56 86
e 56 87
e 56 88
e 56 149
e 56 150
e 56 151
e 56 152
e 56 153
e 56 154
e 56 171
e 56 172
e 57 82
e 57 98
e 57 114
e 57 128
e 57 148
e 57 158
e 57 170
e 57 190
e 58 81
e 58 97
e 58 113
e 58 127
e 58 147
e 58 157
e 58 169
e 58 189
e 59 80
e 59 84
e 59 96
e 59 100
e 59 112
e 59 116
e 59 126
e 59 130
e 60 79
e 60 83
e 60 95
e 60 99
e 60 111
e 60 115
e 60 125
e 60 129
e 61 82
e 61 98
e 61 114
e 61 128
e 62 81
e 62 97
e 62 113
e 62 127
e 63 76
e 63 86
e 63 92
e 63 102
e 63 146
e 63 152
e 63 156
e 63 162
e 63 172
e 63 192
e 64 75
e 64 86
e 64 91
e 64 102
e 64 145
e 64 151
e 64 155
e 64 161
e 64 171
e 64 191
e 65 74
e 65 78
e 65 87
e 65 90
e 65 94
e 65 103
e 65 150
e 65 154
e 65 160
e 65 164
e 66 73
e 66 77
e 66 87
e 66 89
e 66 93
e 66 103
e 66 149
e 66 153
e 66 159
e 66 163
e 67 76
e 67 85
e 67 88
e 67 92
e 67 101
e 67 104
e 67 152
e 67 162
e 68 75
e 68 85
e 68 88
e 68 91
e 68 101
e 68 104
e 68 151
e 68 161
e 69 83
e 69 84
e 69 99
e 69 100
e 70 79
e 70 80
e 70 95
e 70 96
e 71 81
e 71 82
e 71 97
e 71 98
e 72 83
e 72 84
e 72 99
e 72 100
e 73 108
e 73 122
e 73 132
e 73 138
e 73 166
e 73 182
e 73 196
e 73 202
e 73 210
e 74 107
e 74 122
e 74 132
e 74 137
e 74 165
e 74 181
e 74 195
e 74 201
e 74 209
e 75 106
e 75 110
e 75 123
e 75 133
e 75 180
e 75 184
e 75 194
e 75 198
e 76 105
e 76 109
e 76 123
e 76 133
e 76 179
e 76 183
e 76 193
e 76 197
e 77 108
e 77 121
e 77 124
e 77 131
e 77 134
e 77 182
e 77 196
e 78 107
e 78 121
e 78 124
e 78 131
e 78 134
e 78 181
e 78 195
e 79 118
e 79 136
e 79 142
e 79 168
e 79 176
e 79 186
e 79 200
e 79 206
e 79 212
e 80 118
e 80 135
e 80 141
e 80 167
e 80 175
e 80 186
e 80 199
e 80 205
e 80 211
e 81 119
e 81 140
e 81 144
e 81 174
e 81 178
e 81 187
e 81 204
e 81 208
e 82 119
e 82 139
e 82 143
e 82 173
e 82 177
e 82 187
e 82 203
e 82 207
e 83 117
e 83 120
e 83 142
e 83 176
e 83 185
e 83 188
e 83 206
e 84 117
e 84 120
e 84 141
e 84 175
e 84 185
e 84 188
e 84 205
e 85 122
e 85 123
e 85 124
e 85 183
e 85 184
e 86 121
e 86 123
e 86 124
e 86 179
e 86 180
e 87 121
e 87 122
e 87 124
e 87 181
e 87 182
e 88 121
e 88 122
e 88 123
e 88 183
e 88 184
e 89 98
e 89 108
e 89 128
e 89 138
e 89 158
e 89 166
e 89 190
e 90 97
e 90 107
e 90 127
e 90 137
e 90 157
e 90 165
e 90 189
e 91 96
e 91 100
e 91 106
e 91 110
e 91 126
e 91 130
e 92 95
e 92 99
e 92 105
e 92 109
e 92 125
e 92 129
e 93 98
e 93 108
e 93 128
e 94 97
e 94 107
e 94 127
e 95 102
e 95 136
e 95 142
e 95 156
e 95 162
e 95 168
e 95 192
e 96 102
e 96 135
e 96 141
e 96 155
e 96 161
e 96 167
e 96 191
e 97 103
e 97 140
e 97 144
e 97 160
e 97 164
e 98 103
e 98 139
e 98 143
e 98 159
e 98 163
e 99 101
e 99 104
e 99 142
e 99 162
e 100 101
e 100 104
e 100 141
e 100 161
e 105 114
e 105 128
e 105 146
e 105 156
e 105 170
e 105 190
e 106 113
e 106 127
e 106 145
e 106 155
e 106 169
e 106 189
e 107 112
e 107 116
e 107 126
e 107 130
e 108 111
e 108 115
e 108 125
e 108 129
e 109 114
e 109 128
e 110 113
e 110 127
e 111 118
e 111 132
e 111 136
e 111 166
e 111 176
e 111 196
e 111 200
e 111 210
e 112 118
e 112 132
e 112 135
e 112 165
e 112 175
e 112 195
e 112 199
e 112 209
e 113 119
e 113 133
e 113 174
e 113 178
e 113 194
e 113 198
e 114 119
e 114 133
e 114 173
e 114 177
e 114 193
e 114 197
e 115 117
e 115 120
e 115 131
e 115 134
e 115 176
e 115 196
e 116 117
e 116 120
e 116 131
e 116 134
e 116 175
e 116 195
e 121 153
e 121 154
e 122 149
e 122 150
e 123 151
e 123 152
e 124 153
e 124 154
e 125 128
e 125 136
e 125 156
e 125 166
e 125 190
e 126 127
e 126 135
e 126 155
e 126 165
e 126 189
e 127 130
e 128 129
e 135 148
e 135 158
e 135 170
e 135 190
e 136 147
e 136 157
e 136 169
e 136 189
e 137 146
e 137 150
e 137 156
e 137 160
e 137 172
e 137 192
e 138 145
e 138 149
e 138 155
e 138 159
e 138 171
e 138 191
e 139 148
e 139 158
e 140 147
e 140 157
e 145 166
e 145 180
e 145 194
e 145 202
e 145 210
e 146 165
e 146 179
e 146 193
e 146 201
e 146 209
e 147 168
e 147 174
e 147 200
e 147 204
e 147 212
e 148 167
e 148 173
e 148 199
e 148 203
e 148 211
e 149 182
e 149 202
e 150 181
e 150 201
e 151 180
e 151 184
e 152 179
e 152 183
e 153 182
e 154 181
e 155 158
e 155 166
e 155 190
e 156 157
e 156 165
e 156 189
e 157 160
e 157 168
e 157 192
e 158 159
e 158 167
e 158 191
e 165 170
e 165 190
e 166 169
e 166 189
e 169 174
e 169 194
e 169 200
e 169 210
e 170 173
e 170 193
e 170 199
e 170 209
e 171 180
e 171 202
e 172 179
e 172 201
e 189 190
